(set-logic QF_LRA)
(declare-fun T1 () Real )
(declare-fun T2 () Real )
(declare-fun T3 () Real )
(declare-fun T4 () Real )
(declare-fun T5 () Real )
(declare-fun T6 () Real )
(declare-fun T7 () Real )
(declare-fun T8 () Real )
(declare-fun Z () Real )
(declare-fun k () Real )
(assert (let
(( $goal (>= Z k) ))
(let
((
$phi ( and 
(or ( <= ( + T1 9 ) T2 ) ( <= ( + T2 95 ) T1 ) )
(or ( <= ( + T1 104 )  ( + T2 95 ) ) ( <= ( + T2 163 )( + T1 9 ) ) )
(or ( <= ( + T1 121 )  ( + T2 163 ) ) ( <= ( + T2 199 )( + T1 104 ) ) )
(or ( <= ( + T1 199 )  ( + T2 199 ) ) ( <= ( + T2 258 )( + T1 121 ) ) )
(or ( <= ( + T1 236 )  ( + T2 258 ) ) ( <= ( + T2 278 )( + T1 199 ) ) )
(or ( <= ( + T1 274 )  ( + T2 278 ) ) ( <= ( + T2 306 )( + T1 236 ) ) )
(or ( <= ( + T1 9 ) T3 ) ( <= ( + T3 95 ) T1 ) )
(or ( <= ( + T1 104 )  ( + T3 95 ) ) ( <= ( + T3 119 )( + T1 9 ) ) )
(or ( <= ( + T1 121 )  ( + T3 119 ) ) ( <= ( + T3 153 )( + T1 104 ) ) )
(or ( <= ( + T1 199 )  ( + T3 153 ) ) ( <= ( + T3 177 )( + T1 121 ) ) )
(or ( <= ( + T1 236 )  ( + T3 177 ) ) ( <= ( + T3 261 )( + T1 199 ) ) )
(or ( <= ( + T1 274 )  ( + T3 261 ) ) ( <= ( + T3 327 )( + T1 236 ) ) )
(or ( <= ( + T1 9 ) T4 ) ( <= ( + T4 26 ) T1 ) )
(or ( <= ( + T1 104 )  ( + T4 26 ) ) ( <= ( + T4 110 )( + T1 9 ) ) )
(or ( <= ( + T1 121 )  ( + T4 110 ) ) ( <= ( + T4 136 )( + T1 104 ) ) )
(or ( <= ( + T1 199 )  ( + T4 136 ) ) ( <= ( + T4 207 )( + T1 121 ) ) )
(or ( <= ( + T1 236 )  ( + T4 207 ) ) ( <= ( + T4 231 )( + T1 199 ) ) )
(or ( <= ( + T1 274 )  ( + T4 231 ) ) ( <= ( + T4 322 )( + T1 236 ) ) )
(or ( <= ( + T1 9 ) T5 ) ( <= ( + T5 37 ) T1 ) )
(or ( <= ( + T1 104 )  ( + T5 37 ) ) ( <= ( + T5 99 )( + T1 9 ) ) )
(or ( <= ( + T1 121 )  ( + T5 99 ) ) ( <= ( + T5 162 )( + T1 104 ) ) )
(or ( <= ( + T1 199 )  ( + T5 162 ) ) ( <= ( + T5 214 )( + T1 121 ) ) )
(or ( <= ( + T1 236 )  ( + T5 214 ) ) ( <= ( + T5 291 )( + T1 199 ) ) )
(or ( <= ( + T1 274 )  ( + T5 291 ) ) ( <= ( + T5 336 )( + T1 236 ) ) )
(or ( <= ( + T1 9 ) T6 ) ( <= ( + T6 48 ) T1 ) )
(or ( <= ( + T1 104 )  ( + T6 48 ) ) ( <= ( + T6 86 )( + T1 9 ) ) )
(or ( <= ( + T1 121 )  ( + T6 86 ) ) ( <= ( + T6 178 )( + T1 104 ) ) )
(or ( <= ( + T1 199 )  ( + T6 178 ) ) ( <= ( + T6 194 )( + T1 121 ) ) )
(or ( <= ( + T1 236 )  ( + T6 194 ) ) ( <= ( + T6 261 )( + T1 199 ) ) )
(or ( <= ( + T1 274 )  ( + T6 261 ) ) ( <= ( + T6 289 )( + T1 236 ) ) )
(or ( <= ( + T1 9 ) T7 ) ( <= ( + T7 53 ) T1 ) )
(or ( <= ( + T1 104 )  ( + T7 53 ) ) ( <= ( + T7 114 )( + T1 9 ) ) )
(or ( <= ( + T1 121 )  ( + T7 114 ) ) ( <= ( + T7 161 )( + T1 104 ) ) )
(or ( <= ( + T1 199 )  ( + T7 161 ) ) ( <= ( + T7 202 )( + T1 121 ) ) )
(or ( <= ( + T1 236 )  ( + T7 202 ) ) ( <= ( + T7 273 )( + T1 199 ) ) )
(or ( <= ( + T1 274 )  ( + T7 273 ) ) ( <= ( + T7 340 )( + T1 236 ) ) )
(or ( <= ( + T1 9 ) T8 ) ( <= ( + T8 68 ) T1 ) )
(or ( <= ( + T1 104 )  ( + T8 68 ) ) ( <= ( + T8 133 )( + T1 9 ) ) )
(or ( <= ( + T1 121 )  ( + T8 133 ) ) ( <= ( + T8 223 )( + T1 104 ) ) )
(or ( <= ( + T1 199 )  ( + T8 223 ) ) ( <= ( + T8 276 )( + T1 121 ) ) )
(or ( <= ( + T1 236 )  ( + T8 276 ) ) ( <= ( + T8 316 )( + T1 199 ) ) )
(or ( <= ( + T1 274 )  ( + T8 316 ) ) ( <= ( + T8 389 )( + T1 236 ) ) )
(or ( <= ( + T2 95 ) T3 ) ( <= ( + T3 95 ) T2 ) )
(or ( <= ( + T2 163 )  ( + T3 95 ) ) ( <= ( + T3 119 )( + T2 95 ) ) )
(or ( <= ( + T2 199 )  ( + T3 119 ) ) ( <= ( + T3 153 )( + T2 163 ) ) )
(or ( <= ( + T2 258 )  ( + T3 153 ) ) ( <= ( + T3 177 )( + T2 199 ) ) )
(or ( <= ( + T2 278 )  ( + T3 177 ) ) ( <= ( + T3 261 )( + T2 258 ) ) )
(or ( <= ( + T2 306 )  ( + T3 261 ) ) ( <= ( + T3 327 )( + T2 278 ) ) )
(or ( <= ( + T2 95 ) T4 ) ( <= ( + T4 26 ) T2 ) )
(or ( <= ( + T2 163 )  ( + T4 26 ) ) ( <= ( + T4 110 )( + T2 95 ) ) )
(or ( <= ( + T2 199 )  ( + T4 110 ) ) ( <= ( + T4 136 )( + T2 163 ) ) )
(or ( <= ( + T2 258 )  ( + T4 136 ) ) ( <= ( + T4 207 )( + T2 199 ) ) )
(or ( <= ( + T2 278 )  ( + T4 207 ) ) ( <= ( + T4 231 )( + T2 258 ) ) )
(or ( <= ( + T2 306 )  ( + T4 231 ) ) ( <= ( + T4 322 )( + T2 278 ) ) )
(or ( <= ( + T2 95 ) T5 ) ( <= ( + T5 37 ) T2 ) )
(or ( <= ( + T2 163 )  ( + T5 37 ) ) ( <= ( + T5 99 )( + T2 95 ) ) )
(or ( <= ( + T2 199 )  ( + T5 99 ) ) ( <= ( + T5 162 )( + T2 163 ) ) )
(or ( <= ( + T2 258 )  ( + T5 162 ) ) ( <= ( + T5 214 )( + T2 199 ) ) )
(or ( <= ( + T2 278 )  ( + T5 214 ) ) ( <= ( + T5 291 )( + T2 258 ) ) )
(or ( <= ( + T2 306 )  ( + T5 291 ) ) ( <= ( + T5 336 )( + T2 278 ) ) )
(or ( <= ( + T2 95 ) T6 ) ( <= ( + T6 48 ) T2 ) )
(or ( <= ( + T2 163 )  ( + T6 48 ) ) ( <= ( + T6 86 )( + T2 95 ) ) )
(or ( <= ( + T2 199 )  ( + T6 86 ) ) ( <= ( + T6 178 )( + T2 163 ) ) )
(or ( <= ( + T2 258 )  ( + T6 178 ) ) ( <= ( + T6 194 )( + T2 199 ) ) )
(or ( <= ( + T2 278 )  ( + T6 194 ) ) ( <= ( + T6 261 )( + T2 258 ) ) )
(or ( <= ( + T2 306 )  ( + T6 261 ) ) ( <= ( + T6 289 )( + T2 278 ) ) )
(or ( <= ( + T2 95 ) T7 ) ( <= ( + T7 53 ) T2 ) )
(or ( <= ( + T2 163 )  ( + T7 53 ) ) ( <= ( + T7 114 )( + T2 95 ) ) )
(or ( <= ( + T2 199 )  ( + T7 114 ) ) ( <= ( + T7 161 )( + T2 163 ) ) )
(or ( <= ( + T2 258 )  ( + T7 161 ) ) ( <= ( + T7 202 )( + T2 199 ) ) )
(or ( <= ( + T2 278 )  ( + T7 202 ) ) ( <= ( + T7 273 )( + T2 258 ) ) )
(or ( <= ( + T2 306 )  ( + T7 273 ) ) ( <= ( + T7 340 )( + T2 278 ) ) )
(or ( <= ( + T2 95 ) T8 ) ( <= ( + T8 68 ) T2 ) )
(or ( <= ( + T2 163 )  ( + T8 68 ) ) ( <= ( + T8 133 )( + T2 95 ) ) )
(or ( <= ( + T2 199 )  ( + T8 133 ) ) ( <= ( + T8 223 )( + T2 163 ) ) )
(or ( <= ( + T2 258 )  ( + T8 223 ) ) ( <= ( + T8 276 )( + T2 199 ) ) )
(or ( <= ( + T2 278 )  ( + T8 276 ) ) ( <= ( + T8 316 )( + T2 258 ) ) )
(or ( <= ( + T2 306 )  ( + T8 316 ) ) ( <= ( + T8 389 )( + T2 278 ) ) )
(or ( <= ( + T3 95 ) T4 ) ( <= ( + T4 26 ) T3 ) )
(or ( <= ( + T3 119 )  ( + T4 26 ) ) ( <= ( + T4 110 )( + T3 95 ) ) )
(or ( <= ( + T3 153 )  ( + T4 110 ) ) ( <= ( + T4 136 )( + T3 119 ) ) )
(or ( <= ( + T3 177 )  ( + T4 136 ) ) ( <= ( + T4 207 )( + T3 153 ) ) )
(or ( <= ( + T3 261 )  ( + T4 207 ) ) ( <= ( + T4 231 )( + T3 177 ) ) )
(or ( <= ( + T3 327 )  ( + T4 231 ) ) ( <= ( + T4 322 )( + T3 261 ) ) )
(or ( <= ( + T3 95 ) T5 ) ( <= ( + T5 37 ) T3 ) )
(or ( <= ( + T3 119 )  ( + T5 37 ) ) ( <= ( + T5 99 )( + T3 95 ) ) )
(or ( <= ( + T3 153 )  ( + T5 99 ) ) ( <= ( + T5 162 )( + T3 119 ) ) )
(or ( <= ( + T3 177 )  ( + T5 162 ) ) ( <= ( + T5 214 )( + T3 153 ) ) )
(or ( <= ( + T3 261 )  ( + T5 214 ) ) ( <= ( + T5 291 )( + T3 177 ) ) )
(or ( <= ( + T3 327 )  ( + T5 291 ) ) ( <= ( + T5 336 )( + T3 261 ) ) )
(or ( <= ( + T3 95 ) T6 ) ( <= ( + T6 48 ) T3 ) )
(or ( <= ( + T3 119 )  ( + T6 48 ) ) ( <= ( + T6 86 )( + T3 95 ) ) )
(or ( <= ( + T3 153 )  ( + T6 86 ) ) ( <= ( + T6 178 )( + T3 119 ) ) )
(or ( <= ( + T3 177 )  ( + T6 178 ) ) ( <= ( + T6 194 )( + T3 153 ) ) )
(or ( <= ( + T3 261 )  ( + T6 194 ) ) ( <= ( + T6 261 )( + T3 177 ) ) )
(or ( <= ( + T3 327 )  ( + T6 261 ) ) ( <= ( + T6 289 )( + T3 261 ) ) )
(or ( <= ( + T3 95 ) T7 ) ( <= ( + T7 53 ) T3 ) )
(or ( <= ( + T3 119 )  ( + T7 53 ) ) ( <= ( + T7 114 )( + T3 95 ) ) )
(or ( <= ( + T3 153 )  ( + T7 114 ) ) ( <= ( + T7 161 )( + T3 119 ) ) )
(or ( <= ( + T3 177 )  ( + T7 161 ) ) ( <= ( + T7 202 )( + T3 153 ) ) )
(or ( <= ( + T3 261 )  ( + T7 202 ) ) ( <= ( + T7 273 )( + T3 177 ) ) )
(or ( <= ( + T3 327 )  ( + T7 273 ) ) ( <= ( + T7 340 )( + T3 261 ) ) )
(or ( <= ( + T3 95 ) T8 ) ( <= ( + T8 68 ) T3 ) )
(or ( <= ( + T3 119 )  ( + T8 68 ) ) ( <= ( + T8 133 )( + T3 95 ) ) )
(or ( <= ( + T3 153 )  ( + T8 133 ) ) ( <= ( + T8 223 )( + T3 119 ) ) )
(or ( <= ( + T3 177 )  ( + T8 223 ) ) ( <= ( + T8 276 )( + T3 153 ) ) )
(or ( <= ( + T3 261 )  ( + T8 276 ) ) ( <= ( + T8 316 )( + T3 177 ) ) )
(or ( <= ( + T3 327 )  ( + T8 316 ) ) ( <= ( + T8 389 )( + T3 261 ) ) )
(or ( <= ( + T4 26 ) T5 ) ( <= ( + T5 37 ) T4 ) )
(or ( <= ( + T4 110 )  ( + T5 37 ) ) ( <= ( + T5 99 )( + T4 26 ) ) )
(or ( <= ( + T4 136 )  ( + T5 99 ) ) ( <= ( + T5 162 )( + T4 110 ) ) )
(or ( <= ( + T4 207 )  ( + T5 162 ) ) ( <= ( + T5 214 )( + T4 136 ) ) )
(or ( <= ( + T4 231 )  ( + T5 214 ) ) ( <= ( + T5 291 )( + T4 207 ) ) )
(or ( <= ( + T4 322 )  ( + T5 291 ) ) ( <= ( + T5 336 )( + T4 231 ) ) )
(or ( <= ( + T4 26 ) T6 ) ( <= ( + T6 48 ) T4 ) )
(or ( <= ( + T4 110 )  ( + T6 48 ) ) ( <= ( + T6 86 )( + T4 26 ) ) )
(or ( <= ( + T4 136 )  ( + T6 86 ) ) ( <= ( + T6 178 )( + T4 110 ) ) )
(or ( <= ( + T4 207 )  ( + T6 178 ) ) ( <= ( + T6 194 )( + T4 136 ) ) )
(or ( <= ( + T4 231 )  ( + T6 194 ) ) ( <= ( + T6 261 )( + T4 207 ) ) )
(or ( <= ( + T4 322 )  ( + T6 261 ) ) ( <= ( + T6 289 )( + T4 231 ) ) )
(or ( <= ( + T4 26 ) T7 ) ( <= ( + T7 53 ) T4 ) )
(or ( <= ( + T4 110 )  ( + T7 53 ) ) ( <= ( + T7 114 )( + T4 26 ) ) )
(or ( <= ( + T4 136 )  ( + T7 114 ) ) ( <= ( + T7 161 )( + T4 110 ) ) )
(or ( <= ( + T4 207 )  ( + T7 161 ) ) ( <= ( + T7 202 )( + T4 136 ) ) )
(or ( <= ( + T4 231 )  ( + T7 202 ) ) ( <= ( + T7 273 )( + T4 207 ) ) )
(or ( <= ( + T4 322 )  ( + T7 273 ) ) ( <= ( + T7 340 )( + T4 231 ) ) )
(or ( <= ( + T4 26 ) T8 ) ( <= ( + T8 68 ) T4 ) )
(or ( <= ( + T4 110 )  ( + T8 68 ) ) ( <= ( + T8 133 )( + T4 26 ) ) )
(or ( <= ( + T4 136 )  ( + T8 133 ) ) ( <= ( + T8 223 )( + T4 110 ) ) )
(or ( <= ( + T4 207 )  ( + T8 223 ) ) ( <= ( + T8 276 )( + T4 136 ) ) )
(or ( <= ( + T4 231 )  ( + T8 276 ) ) ( <= ( + T8 316 )( + T4 207 ) ) )
(or ( <= ( + T4 322 )  ( + T8 316 ) ) ( <= ( + T8 389 )( + T4 231 ) ) )
(or ( <= ( + T5 37 ) T6 ) ( <= ( + T6 48 ) T5 ) )
(or ( <= ( + T5 99 )  ( + T6 48 ) ) ( <= ( + T6 86 )( + T5 37 ) ) )
(or ( <= ( + T5 162 )  ( + T6 86 ) ) ( <= ( + T6 178 )( + T5 99 ) ) )
(or ( <= ( + T5 214 )  ( + T6 178 ) ) ( <= ( + T6 194 )( + T5 162 ) ) )
(or ( <= ( + T5 291 )  ( + T6 194 ) ) ( <= ( + T6 261 )( + T5 214 ) ) )
(or ( <= ( + T5 336 )  ( + T6 261 ) ) ( <= ( + T6 289 )( + T5 291 ) ) )
(or ( <= ( + T5 37 ) T7 ) ( <= ( + T7 53 ) T5 ) )
(or ( <= ( + T5 99 )  ( + T7 53 ) ) ( <= ( + T7 114 )( + T5 37 ) ) )
(or ( <= ( + T5 162 )  ( + T7 114 ) ) ( <= ( + T7 161 )( + T5 99 ) ) )
(or ( <= ( + T5 214 )  ( + T7 161 ) ) ( <= ( + T7 202 )( + T5 162 ) ) )
(or ( <= ( + T5 291 )  ( + T7 202 ) ) ( <= ( + T7 273 )( + T5 214 ) ) )
(or ( <= ( + T5 336 )  ( + T7 273 ) ) ( <= ( + T7 340 )( + T5 291 ) ) )
(or ( <= ( + T5 37 ) T8 ) ( <= ( + T8 68 ) T5 ) )
(or ( <= ( + T5 99 )  ( + T8 68 ) ) ( <= ( + T8 133 )( + T5 37 ) ) )
(or ( <= ( + T5 162 )  ( + T8 133 ) ) ( <= ( + T8 223 )( + T5 99 ) ) )
(or ( <= ( + T5 214 )  ( + T8 223 ) ) ( <= ( + T8 276 )( + T5 162 ) ) )
(or ( <= ( + T5 291 )  ( + T8 276 ) ) ( <= ( + T8 316 )( + T5 214 ) ) )
(or ( <= ( + T5 336 )  ( + T8 316 ) ) ( <= ( + T8 389 )( + T5 291 ) ) )
(or ( <= ( + T6 48 ) T7 ) ( <= ( + T7 53 ) T6 ) )
(or ( <= ( + T6 86 )  ( + T7 53 ) ) ( <= ( + T7 114 )( + T6 48 ) ) )
(or ( <= ( + T6 178 )  ( + T7 114 ) ) ( <= ( + T7 161 )( + T6 86 ) ) )
(or ( <= ( + T6 194 )  ( + T7 161 ) ) ( <= ( + T7 202 )( + T6 178 ) ) )
(or ( <= ( + T6 261 )  ( + T7 202 ) ) ( <= ( + T7 273 )( + T6 194 ) ) )
(or ( <= ( + T6 289 )  ( + T7 273 ) ) ( <= ( + T7 340 )( + T6 261 ) ) )
(or ( <= ( + T6 48 ) T8 ) ( <= ( + T8 68 ) T6 ) )
(or ( <= ( + T6 86 )  ( + T8 68 ) ) ( <= ( + T8 133 )( + T6 48 ) ) )
(or ( <= ( + T6 178 )  ( + T8 133 ) ) ( <= ( + T8 223 )( + T6 86 ) ) )
(or ( <= ( + T6 194 )  ( + T8 223 ) ) ( <= ( + T8 276 )( + T6 178 ) ) )
(or ( <= ( + T6 261 )  ( + T8 276 ) ) ( <= ( + T8 316 )( + T6 194 ) ) )
(or ( <= ( + T6 289 )  ( + T8 316 ) ) ( <= ( + T8 389 )( + T6 261 ) ) )
(or ( <= ( + T7 53 ) T8 ) ( <= ( + T8 68 ) T7 ) )
(or ( <= ( + T7 114 )  ( + T8 68 ) ) ( <= ( + T8 133 )( + T7 53 ) ) )
(or ( <= ( + T7 161 )  ( + T8 133 ) ) ( <= ( + T8 223 )( + T7 114 ) ) )
(or ( <= ( + T7 202 )  ( + T8 223 ) ) ( <= ( + T8 276 )( + T7 161 ) ) )
(or ( <= ( + T7 273 )  ( + T8 276 ) ) ( <= ( + T8 316 )( + T7 202 ) ) )
(or ( <= ( + T7 340 )  ( + T8 316 ) ) ( <= ( + T8 389 )( + T7 273 ) ) )
( <= ( + T1 274 ) Z)
( <= ( + T2 306 ) Z)
( <= ( + T3 327 ) Z)
( <= ( + T4 322 ) Z)
( <= ( + T5 336 ) Z)
( <= ( + T6 289 ) Z)
( <= ( + T7 340 ) Z)
( <= ( + T8 389 ) Z)
( >= T1 0 )
( >= T2 0 )
( >= T3 0 )
( >= T4 0 )
( >= T5 0 )
( >= T6 0 )
( >= T7 0 )
( >= T8 0 )
) )
)(=> $phi $goal))))